Version identifier: 22.1.1.0 | 2022-11-28 | 9160aff4d
CPXPARAM_Threads                                 1
CPXPARAM_MIP_Strategy_VariableSelect             3
CPXPARAM_TimeLimit                               599.99999334100005
1 of 1 MIP starts provided solutions.
MIP start 'm1' defined initial solution with objective 127.0000.
Tried aggregator 1 time.
MIP Presolve eliminated 375 rows and 1080 columns.
Reduced MIP has 2156 rows, 3240 columns, and 30066 nonzeros.
Reduced MIP has 3240 binaries, 0 generals, 0 SOSs, and 0 indicators.
Presolve time = 0.02 sec. (16.48 ticks)
Probing time = 0.00 sec. (2.83 ticks)
Tried aggregator 1 time.
Detecting symmetries...
Reduced MIP has 2156 rows, 3240 columns, and 30066 nonzeros.
Reduced MIP has 3240 binaries, 0 generals, 0 SOSs, and 0 indicators.
Presolve time = 0.01 sec. (16.98 ticks)
Probing time = 0.00 sec. (2.83 ticks)
Clique table members: 1075.
MIP emphasis: balance optimality and feasibility.
MIP search method: dynamic search.
Parallel mode: none, using 1 thread.
Root relaxation solution time = 0.02 sec. (23.14 ticks)

        Nodes                                         Cuts/
   Node  Left     Objective  IInf  Best Integer    Best Bound    ItCnt     Gap

*     0+    0                          127.0000     3240.0000              --- 
      0     0      360.0000    72      127.0000      360.0000      781  183.46%
*     0+    0                          360.0000      360.0000             0.00%
      0     0        cutoff            360.0000      360.0000      781    0.00%
Elapsed time = 0.08 sec. (104.67 ticks, tree = 0.01 MB, solutions = 2)

Root node processing (before b&c):
  Real time             =    0.08 sec. (104.83 ticks)
Sequential b&c:
  Real time             =    0.00 sec. (0.00 ticks)
                          ------------
Total (root+branch&cut) =    0.08 sec. (104.83 ticks)
Primal:	360
Dual:	360
Status:	Optimal
Time:	0.08
Sequence:
	0
	5
	5
	9
	0
	4
	9
	5
	9
	0
	5
	4
	9
	4
	1
	9
	9
	9
	9
	9
	9
	9
	9
	0
	5
	5
	9
	5
	9
	9
	9
	5
	5
	9
	5
	9
	9
	5
	5
	9
	5
	5
	9
	5
	9
	5
	5
	9
	5
	5
	9
	5
	9
	9
	9
	9
	9
	9
	5
	9
	5
	5
	9
	9
	9
	9
	9
	9
	9
	9
	9
	9
	9
	9
	9
	9
	9
	9
	11
	9
	9
	9
	9
	9
	9
	9
	9
	9
	5
	5
	11
	4
	0
	5
	5
	9
	0
	5
	5
	9
	0
	5
	5
	9
	5
	0
	9
	5
	5
	0
	9
	5
	0
	9
	1
	4
	0
	5
	9
	4
	5
	0
	9
	4
	0
	9
	9
	0
	9
	4
	1
	5
	0
	4
	5
	9
	9
	9
	9
	9
	9
	9
	5
	5
	9
	9
	9
	9
	9
	9
	9
	9
	9
	9
	5
	4
	9
	5
	0
	4
	9
	2
	4
	4
	0
	9
	4
	0
	9
	4
	0
	4
	4
	9
	4
	0
	9
	5
	5
	0
	4
	4
	9
	0
	1
	5
	9
	0
	4
	5
	1
	9
	0
	4
	9
	0
	4
	5
	0
	1
	4
	9
	5
	0
	5
	9
	1
	0
	4
	5
	0
	4
	9
	5
	3
	5
	4
	0
	5
	5
	9
	0
	1
	9
	0
	5
	9
	0
	5
	9
	5
	0
	5
	4
	0
	5
	10
	4
	0
	3
	4
	5
	0
	4
	9
	5
	4
	0
	5
	4
	1
	4
	0
	4
	3
	5
	4
	0
	4
	4
	1
	0
	9
	4
	5
	0
	4
	4
	0
	4
	9
	0
	5
	9
	11
	5
	9
	5
	5
	9
	5
	0
	9
	9
	9
	9
	9
	9
	9
	9
	0
	1
	4
	0
	4
	9
	4
	4
	1
	5
	0
	4
	4
	9
	4
	4
	0
	4
	4
	0
	5
	4
	0
	4
	4
	0
	4
	4
	9
	4
	5
	9
	0
	1
	5
	4
	0
	9
	5
	5
	0
	4
	5
	0
	5
	9
	1
	9
	1
	5
	9
	1
	1
	0
	4
	5
	9
	1
	1
	4
	1
	9
	4
	9
	0
	4
	11
	4
	5
	0
